32149.0
0 0 1 0 1 1 1 1 1 0 1 1 1 1 1 0 1 1 1 1 0 1 1 1 1 1 0 0 1 0 
18 19 21 22 2 12 21 28 22 28 4 28 13 13 28 18 13 10 22 24 18 16 5 24 10 18 24 19 4 2 19 19 4 16 28 6 8 8 24 16 18 8 6 4 8 19 13 21 19 14 24 16 24 16 8 6 11 8 18 25 4 2 7 8 13 11 5 14 28 25 18 12 19 8 23 23 10 23 8 16 10 17 8 25 4 13 19 5 24 7 28 6 25 25 2 13 11 6 17 28 28 21 25 18 4 24 4 24 22 13 19 4 18 12 12 8 28 7 17 8 14 11 17 19 4 16 2 11 19 17 28 24 25 10 23 8 13 13 28 10 12 22 11 11 25 5 24 16 22 25 24 17 23 17 8 11 2 21 13 13 13 24 10 24 5 18 5 4 13 21 5 8 19 14 4 2 24 10 4 10 5 21 2 19 12 8 28 23 17 21 2 21 6 4 7 12 7 21 10 19 